c nIsolatedPIs 64
c maxPI 64
p cnf 196 397
c gate 65 2 34 0
2 -65 0
34 -65 0
-2 -34 65 0
c gate 66 1 33 0
1 -66 0
33 -66 0
-1 -33 66 0
c gate 67 -65 -66 0
-65 -67 0
-66 -67 0
65 66 67 0
c gate 68 -3 -35 0
-3 -68 0
-35 -68 0
3 35 68 0
c gate 69 -2 -34 0
-2 -69 0
-34 -69 0
2 34 69 0
c gate 70 -68 -69 0
-68 -70 0
-69 -70 0
68 69 70 0
c gate 71 -67 70 0
-67 -71 0
70 -71 0
67 -70 71 0
c gate 72 4 36 0
4 -72 0
36 -72 0
-4 -36 72 0
c gate 73 3 35 0
3 -73 0
35 -73 0
-3 -35 73 0
c gate 74 -72 -73 0
-72 -74 0
-73 -74 0
72 73 74 0
c gate 75 -71 74 0
-71 -75 0
74 -75 0
71 -74 75 0
c gate 76 -5 -37 0
-5 -76 0
-37 -76 0
5 37 76 0
c gate 77 -4 -36 0
-4 -77 0
-36 -77 0
4 36 77 0
c gate 78 -76 -77 0
-76 -78 0
-77 -78 0
76 77 78 0
c gate 79 -75 78 0
-75 -79 0
78 -79 0
75 -78 79 0
c gate 80 6 38 0
6 -80 0
38 -80 0
-6 -38 80 0
c gate 81 5 37 0
5 -81 0
37 -81 0
-5 -37 81 0
c gate 82 -80 -81 0
-80 -82 0
-81 -82 0
80 81 82 0
c gate 83 -79 82 0
-79 -83 0
82 -83 0
79 -82 83 0
c gate 84 -7 -39 0
-7 -84 0
-39 -84 0
7 39 84 0
c gate 85 -6 -38 0
-6 -85 0
-38 -85 0
6 38 85 0
c gate 86 -84 -85 0
-84 -86 0
-85 -86 0
84 85 86 0
c gate 87 -83 86 0
-83 -87 0
86 -87 0
83 -86 87 0
c gate 88 7 39 0
7 -88 0
39 -88 0
-7 -39 88 0
c gate 89 8 40 0
8 -89 0
40 -89 0
-8 -40 89 0
c gate 90 -88 -89 0
-88 -90 0
-89 -90 0
88 89 90 0
c gate 91 -87 90 0
-87 -91 0
90 -91 0
87 -90 91 0
c gate 92 -8 -40 0
-8 -92 0
-40 -92 0
8 40 92 0
c gate 93 -10 -42 0
-10 -93 0
-42 -93 0
10 42 93 0
c gate 94 -9 -41 0
-9 -94 0
-41 -94 0
9 41 94 0
c gate 95 -93 -94 0
-93 -95 0
-94 -95 0
93 94 95 0
c gate 96 -92 95 0
-92 -96 0
95 -96 0
92 -95 96 0
c gate 97 -91 96 0
-91 -97 0
96 -97 0
91 -96 97 0
c gate 98 9 41 0
9 -98 0
41 -98 0
-9 -41 98 0
c gate 99 10 42 0
10 -99 0
42 -99 0
-10 -42 99 0
c gate 100 -98 -99 0
-98 -100 0
-99 -100 0
98 99 100 0
c gate 101 -97 100 0
-97 -101 0
100 -101 0
97 -100 101 0
c gate 102 -11 -43 0
-11 -102 0
-43 -102 0
11 43 102 0
c gate 103 93 98 0
93 -103 0
98 -103 0
-93 -98 103 0
c gate 104 -102 -103 0
-102 -104 0
-103 -104 0
102 103 104 0
c gate 105 -101 104 0
-101 -105 0
104 -105 0
101 -104 105 0
c gate 106 11 43 0
11 -106 0
43 -106 0
-11 -43 106 0
c gate 107 12 44 0
12 -107 0
44 -107 0
-12 -44 107 0
c gate 108 -106 -107 0
-106 -108 0
-107 -108 0
106 107 108 0
c gate 109 -105 108 0
-105 -109 0
108 -109 0
105 -108 109 0
c gate 110 -15 -47 0
-15 -110 0
-47 -110 0
15 47 110 0
c gate 111 -14 -46 0
-14 -111 0
-46 -111 0
14 46 111 0
c gate 112 -110 -111 0
-110 -112 0
-111 -112 0
110 111 112 0
c gate 113 -12 -44 0
-12 -113 0
-44 -113 0
12 44 113 0
c gate 114 -13 -45 0
-13 -114 0
-45 -114 0
13 45 114 0
c gate 115 -113 -114 0
-113 -115 0
-114 -115 0
113 114 115 0
c gate 116 112 115 0
112 -116 0
115 -116 0
-112 -115 116 0
c gate 117 -109 116 0
-109 -117 0
116 -117 0
109 -116 117 0
c gate 118 13 45 0
13 -118 0
45 -118 0
-13 -45 118 0
c gate 119 14 46 0
14 -119 0
46 -119 0
-14 -46 119 0
c gate 120 -118 -119 0
-118 -120 0
-119 -120 0
118 119 120 0
c gate 121 112 -120 0
112 -121 0
-120 -121 0
-112 120 121 0
c gate 122 16 48 0
16 -122 0
48 -122 0
-16 -48 122 0
c gate 123 15 47 0
15 -123 0
47 -123 0
-15 -47 123 0
c gate 124 -122 -123 0
-122 -124 0
-123 -124 0
122 123 124 0
c gate 125 -121 124 0
-121 -125 0
124 -125 0
121 -124 125 0
c gate 126 -117 125 0
-117 -126 0
125 -126 0
117 -125 126 0
c gate 127 21 53 0
21 -127 0
53 -127 0
-21 -53 127 0
c gate 128 24 56 0
24 -128 0
56 -128 0
-24 -56 128 0
c gate 129 -127 -128 0
-127 -129 0
-128 -129 0
127 128 129 0
c gate 130 31 63 0
31 -130 0
63 -130 0
-31 -63 130 0
c gate 131 -23 -55 0
-23 -131 0
-55 -131 0
23 55 131 0
c gate 132 -130 -131 0
-130 -132 0
-131 -132 0
130 131 132 0
c gate 133 129 132 0
129 -133 0
132 -133 0
-129 -132 133 0
c gate 134 -17 -49 0
-17 -134 0
-49 -134 0
17 49 134 0
c gate 135 -16 -48 0
-16 -135 0
-48 -135 0
16 48 135 0
c gate 136 -134 -135 0
-134 -136 0
-135 -136 0
134 135 136 0
c gate 137 -31 -63 0
-31 -137 0
-63 -137 0
31 63 137 0
c gate 138 22 54 0
22 -138 0
54 -138 0
-22 -54 138 0
c gate 139 -137 -138 0
-137 -139 0
-138 -139 0
137 138 139 0
c gate 140 136 139 0
136 -140 0
139 -140 0
-136 -139 140 0
c gate 141 133 140 0
133 -141 0
140 -141 0
-133 -140 141 0
c gate 142 -26 -58 0
-26 -142 0
-58 -142 0
26 58 142 0
c gate 143 -27 -59 0
-27 -143 0
-59 -143 0
27 59 143 0
c gate 144 -142 -143 0
-142 -144 0
-143 -144 0
142 143 144 0
c gate 145 25 57 0
25 -145 0
57 -145 0
-25 -57 145 0
c gate 146 26 58 0
26 -146 0
58 -146 0
-26 -58 146 0
c gate 147 -145 -146 0
-145 -147 0
-146 -147 0
145 146 147 0
c gate 148 144 -147 0
144 -148 0
-147 -148 0
-144 147 148 0
c gate 149 17 49 0
17 -149 0
49 -149 0
-17 -49 149 0
c gate 150 18 50 0
18 -150 0
50 -150 0
-18 -50 150 0
c gate 151 -149 -150 0
-149 -151 0
-150 -151 0
149 150 151 0
c gate 152 -21 -53 0
-21 -152 0
-53 -152 0
21 53 152 0
c gate 153 -18 -50 0
-18 -153 0
-50 -153 0
18 50 153 0
c gate 154 -152 -153 0
-152 -154 0
-153 -154 0
152 153 154 0
c gate 155 -151 154 0
-151 -155 0
154 -155 0
151 -154 155 0
c gate 156 -148 -155 0
-148 -156 0
-155 -156 0
148 155 156 0
c gate 157 141 156 0
141 -157 0
156 -157 0
-141 -156 157 0
c gate 158 144 151 0
144 -158 0
151 -158 0
-144 -151 158 0
c gate 159 -20 -52 0
-20 -159 0
-52 -159 0
20 52 159 0
c gate 160 19 51 0
19 -160 0
51 -160 0
-19 -51 160 0
c gate 161 -159 160 0
-159 -161 0
160 -161 0
159 -160 161 0
c gate 162 154 -161 0
154 -162 0
-161 -162 0
-154 161 162 0
c gate 163 158 162 0
158 -163 0
162 -163 0
-158 -162 163 0
c gate 164 -22 -54 0
-22 -164 0
-54 -164 0
22 54 164 0
c gate 165 -24 -56 0
-24 -165 0
-56 -165 0
24 56 165 0
c gate 166 -164 -165 0
-164 -166 0
-165 -166 0
164 165 166 0
c gate 167 -32 -64 0
-32 -167 0
-64 -167 0
32 64 167 0
c gate 168 -159 -167 0
-159 -168 0
-167 -168 0
159 167 168 0
c gate 169 166 168 0
166 -169 0
168 -169 0
-166 -168 169 0
c gate 170 30 62 0
30 -170 0
62 -170 0
-30 -62 170 0
c gate 171 -28 -60 0
-28 -171 0
-60 -171 0
28 60 171 0
c gate 172 -170 -171 0
-170 -172 0
-171 -172 0
170 171 172 0
c gate 173 -25 -57 0
-25 -173 0
-57 -173 0
25 57 173 0
c gate 174 -19 -51 0
-19 -174 0
-51 -174 0
19 51 174 0
c gate 175 -173 -174 0
-173 -175 0
-174 -175 0
173 174 175 0
c gate 176 172 175 0
172 -176 0
175 -176 0
-172 -175 176 0
c gate 177 169 176 0
169 -177 0
176 -177 0
-169 -176 177 0
c gate 178 29 61 0
29 -178 0
61 -178 0
-29 -61 178 0
c gate 179 23 55 0
23 -179 0
55 -179 0
-23 -55 179 0
c gate 180 -178 -179 0
-178 -180 0
-179 -180 0
178 179 180 0
c gate 181 -29 -61 0
-29 -181 0
-61 -181 0
29 61 181 0
c gate 182 27 59 0
27 -182 0
59 -182 0
-27 -59 182 0
c gate 183 -181 -182 0
-181 -183 0
-182 -183 0
181 182 183 0
c gate 184 180 183 0
180 -184 0
183 -184 0
-180 -183 184 0
c gate 185 20 52 0
20 -185 0
52 -185 0
-20 -52 185 0
c gate 186 32 64 0
32 -186 0
64 -186 0
-32 -64 186 0
c gate 187 -185 -186 0
-185 -187 0
-186 -187 0
185 186 187 0
c gate 188 28 60 0
28 -188 0
60 -188 0
-28 -60 188 0
c gate 189 -30 -62 0
-30 -189 0
-62 -189 0
30 62 189 0
c gate 190 -188 -189 0
-188 -190 0
-189 -190 0
188 189 190 0
c gate 191 187 190 0
187 -191 0
190 -191 0
-187 -190 191 0
c gate 192 184 191 0
184 -192 0
191 -192 0
-184 -191 192 0
c gate 193 177 192 0
177 -193 0
192 -193 0
-177 -192 193 0
c gate 194 163 193 0
163 -194 0
193 -194 0
-163 -193 194 0
c gate 195 157 194 0
157 -195 0
194 -195 0
-157 -194 195 0
c gate 196 -126 195 0
-126 -196 0
195 -196 0
126 -195 196 0
c PO
196 0
